200
120 120
1 95 252
2 95 382
3 95 405
4 94 655
5 94 547
6 94 169
7 93 172
8 93 503
9 93 404
10 93 32
11 92 854
12 92 844
13 92 93
14 92 790
15 92 828
16 92 378
17 91 399
18 91 144
19 91 590
20 90 207
21 90 618
22 90 787
23 90 334
24 88 852
25 88 120
26 88 482
27 87 885
28 86 227
29 86 775
30 86 885
31 85 418
32 85 375
33 85 953
34 85 402
35 84 10
36 83 321
37 82 52
38 82 810
39 82 13
40 81 603
41 81 787
42 81 142
43 80 756
44 80 225
45 80 797
46 79 623
47 78 153
48 78 225
49 77 189
50 77 538
51 76 939
52 75 644
53 75 552
54 75 871
55 75 436
56 74 201
57 73 711
58 73 677
59 72 709
60 72 448
61 72 922
62 71 352
63 70 677
64 70 991
65 69 356
66 67 269
67 67 744
68 66 587
69 66 16
70 66 321
71 65 217
72 65 534
73 65 984
74 64 703
75 64 915
76 62 814
77 62 116
78 61 478
79 61 506
80 60 864
81 60 50
82 60 642
83 60 672
84 58 975
85 57 253
86 56 264
87 55 67
88 54 630
89 54 41
90 54 371
91 53 248
92 53 155
93 53 711
94 53 327
95 52 85
96 52 423
97 52 301
98 52 614
99 51 5
100 51 490
101 51 127
102 50 472
103 50 219
104 49 888
105 48 384
106 48 685
107 47 510
108 46 451
109 46 245
110 46 176
111 46 838
112 46 761
113 45 990
114 44 112
115 44 151
116 44 180
117 42 768
118 42 353
119 41 473
120 41 308
121 41 225
122 41 737
123 40 23
124 40 312
125 40 820
126 40 803
127 40 55
128 39 869
129 39 83
130 38 648
131 38 288
132 38 639
133 38 957
134 36 866
135 36 610
136 35 167
137 35 271
138 34 497
139 33 263
140 33 26
141 32 587
142 32 481
143 31 620
144 31 780
145 30 900
146 30 221
147 30 990
148 29 211
149 29 485
150 29 549
151 29 812
152 29 368
153 29 108
154 28 149
155 28 866
156 28 591
157 26 507
158 25 396
159 25 813
160 25 817
161 25 689
162 25 352
163 24 242
164 24 736
165 24 117
166 24 681
167 23 351
168 23 227
169 23 746
170 22 695
171 22 692
172 22 466
173 22 870
174 21 804
175 21 933
176 21 465
177 20 343
178 19 256
179 18 953
180 17 266
181 17 469
182 17 186
183 17 478
184 17 560
185 17 246
186 17 660
187 16 944
188 16 933
189 15 497
190 14 22
191 14 304
192 14 213
193 14 533
194 14 655
195 14 966
196 14 326
197 13 367
198 13 700
199 13 889
200 12 683
